\Problem name: compact

Minimize
OBJROW: C
Subject To
ord(0,1):  x(0,0) - x(0,1) >= 1
ord(0,2):  - x(0,0) + x(0,2) >= 2
ord(1,1):  x(1,0) - x(1,1) >= 9
ord(1,2):  - x(1,0) + x(1,2) >= 6
ord(2,1):  - x(2,0) + x(2,2) >= 7
ord(2,2):  x(2,1) - x(2,2) >= 2
triangle2(0,1,0):  y(0,1,0) + y(1,0,0) = 1
triangle2(0,1,1):  y(0,1,1) + y(1,0,1) = 1
triangle2(0,1,2):  y(0,1,2) + y(1,0,2) = 1
triangle2(0,2,0):  y(0,2,0) + y(2,0,0) = 1
triangle2(0,2,1):  y(0,2,1) + y(2,0,1) = 1
triangle2(0,2,2):  y(0,2,2) + y(2,0,2) = 1
triangle2(1,2,0):  y(1,2,0) + y(2,1,0) = 1
triangle2(1,2,1):  y(1,2,1) + y(2,1,1) = 1
triangle2(1,2,2):  y(1,2,2) + y(2,1,2) = 1
MCLinV(0,1,0):  x(0,0) - v(0,1,0) - x(1,0) = 6
MCLinV(1,0,0):  - x(0,0) - v(1,0,0) + x(1,0) = 2
MCLin1(0,1,0):  u(0,1,0) >= -0
MCLin2(0,1,0):  -45 y(1,0,0) - u(0,1,0) <= -0
MCLin3(0,1,0):  26 y(1,0,0) + v(0,1,0) - u(0,1,0) <= 26
MCLin4(0,1,0):  26 y(1,0,0) - u(0,1,0) >= -0
MCLin5(0,1,0):  -45 y(1,0,0) + v(0,1,0) - u(0,1,0) >= -45
MCLin6(1,0,0):  u(1,0,0) >= -0
MCLin7(1,0,0):  -34 y(0,1,0) - u(1,0,0) <= -0
MCLin8(1,0,0):  37 y(0,1,0) + v(1,0,0) - u(1,0,0) <= 37
MCLin9(1,0,0):  37 y(0,1,0) - u(1,0,0) >= -0
MCLin10(1,0,0):  -34 y(0,1,0) + v(1,0,0) - u(1,0,0) >= -34
MCLinV(0,1,1):  x(0,1) - v(0,1,1) - x(1,1) = 9
MCLinV(1,0,1):  - x(0,1) - v(1,0,1) + x(1,1) = 1
MCLin1(0,1,1):  u(0,1,1) >= -0
MCLin2(0,1,1):  -40 y(1,0,1) - u(0,1,1) <= -0
MCLin3(0,1,1):  31 y(1,0,1) + v(0,1,1) - u(0,1,1) <= 31
MCLin4(0,1,1):  31 y(1,0,1) - u(0,1,1) >= -0
MCLin5(0,1,1):  -40 y(1,0,1) + v(0,1,1) - u(0,1,1) >= -40
MCLin6(1,0,1):  u(1,0,1) >= -0
MCLin7(1,0,1):  -41 y(0,1,1) - u(1,0,1) <= -0
MCLin8(1,0,1):  30 y(0,1,1) + v(1,0,1) - u(1,0,1) <= 30
MCLin9(1,0,1):  30 y(0,1,1) - u(1,0,1) >= -0
MCLin10(1,0,1):  -41 y(0,1,1) + v(1,0,1) - u(1,0,1) >= -41
MCLinV(0,1,2):  x(0,2) - v(0,1,2) - x(1,2) = 7
MCLinV(1,0,2):  - x(0,2) - v(1,0,2) + x(1,2) = 10
MCLin1(0,1,2):  u(0,1,2) >= -0
MCLin2(0,1,2):  -50 y(1,0,2) - u(0,1,2) <= -0
MCLin3(0,1,2):  21 y(1,0,2) + v(0,1,2) - u(0,1,2) <= 21
MCLin4(0,1,2):  21 y(1,0,2) - u(0,1,2) >= -0
MCLin5(0,1,2):  -50 y(1,0,2) + v(0,1,2) - u(0,1,2) >= -50
MCLin6(1,0,2):  u(1,0,2) >= -0
MCLin7(1,0,2):  -38 y(0,1,2) - u(1,0,2) <= -0
MCLin8(1,0,2):  33 y(0,1,2) + v(1,0,2) - u(1,0,2) <= 33
MCLin9(1,0,2):  33 y(0,1,2) - u(1,0,2) >= -0
MCLin10(1,0,2):  -38 y(0,1,2) + v(1,0,2) - u(1,0,2) >= -38
MCLinV(0,2,0):  x(0,0) - v(0,2,0) - x(2,0) = 7
MCLinV(2,0,0):  - x(0,0) - v(2,0,0) + x(2,0) = 2
MCLin1(0,2,0):  u(0,2,0) >= -0
MCLin2(0,2,0):  -41 y(2,0,0) - u(0,2,0) <= -0
MCLin3(0,2,0):  34 y(2,0,0) + v(0,2,0) - u(0,2,0) <= 34
MCLin4(0,2,0):  34 y(2,0,0) - u(0,2,0) >= -0
MCLin5(0,2,0):  -41 y(2,0,0) + v(0,2,0) - u(0,2,0) >= -41
MCLin6(2,0,0):  u(2,0,0) >= -0
MCLin7(2,0,0):  -43 y(0,2,0) - u(2,0,0) <= -0
MCLin8(2,0,0):  32 y(0,2,0) + v(2,0,0) - u(2,0,0) <= 32
MCLin9(2,0,0):  32 y(0,2,0) - u(2,0,0) >= -0
MCLin10(2,0,0):  -43 y(0,2,0) + v(2,0,0) - u(2,0,0) >= -43
MCLinV(0,2,1):  x(0,1) - v(0,2,1) - x(2,1) = 9
MCLinV(2,0,1):  - x(0,1) - v(2,0,1) + x(2,1) = 1
MCLin1(0,2,1):  u(0,2,1) >= -0
MCLin2(0,2,1):  -53 y(2,0,1) - u(0,2,1) <= -0
MCLin3(0,2,1):  22 y(2,0,1) + v(0,2,1) - u(0,2,1) <= 22
MCLin4(0,2,1):  22 y(2,0,1) - u(0,2,1) >= -0
MCLin5(0,2,1):  -53 y(2,0,1) + v(0,2,1) - u(0,2,1) >= -53
MCLin6(2,0,1):  u(2,0,1) >= -0
MCLin7(2,0,1):  -32 y(0,2,1) - u(2,0,1) <= -0
MCLin8(2,0,1):  43 y(0,2,1) + v(2,0,1) - u(2,0,1) <= 43
MCLin9(2,0,1):  43 y(0,2,1) - u(2,0,1) >= -0
MCLin10(2,0,1):  -32 y(0,2,1) + v(2,0,1) - u(2,0,1) >= -32
MCLinV(0,2,2):  x(0,2) - v(0,2,2) - x(2,2) = 2
MCLinV(2,0,2):  - x(0,2) - v(2,0,2) + x(2,2) = 10
MCLin1(0,2,2):  u(0,2,2) >= -0
MCLin2(0,2,2):  -41 y(2,0,2) - u(0,2,2) <= -0
MCLin3(0,2,2):  34 y(2,0,2) + v(0,2,2) - u(0,2,2) <= 34
MCLin4(0,2,2):  34 y(2,0,2) - u(0,2,2) >= -0
MCLin5(0,2,2):  -41 y(2,0,2) + v(0,2,2) - u(0,2,2) >= -41
MCLin6(2,0,2):  u(2,0,2) >= -0
MCLin7(2,0,2):  -46 y(0,2,2) - u(2,0,2) <= -0
MCLin8(2,0,2):  29 y(0,2,2) + v(2,0,2) - u(2,0,2) <= 29
MCLin9(2,0,2):  29 y(0,2,2) - u(2,0,2) >= -0
MCLin10(2,0,2):  -46 y(0,2,2) + v(2,0,2) - u(2,0,2) >= -46
MCLinV(1,2,0):  x(1,0) - v(1,2,0) - x(2,0) = 7
MCLinV(2,1,0):  - x(1,0) - v(2,1,0) + x(2,0) = 6
MCLin1(1,2,0):  u(1,2,0) >= -0
MCLin2(1,2,0):  -33 y(2,1,0) - u(1,2,0) <= -0
MCLin3(1,2,0):  33 y(2,1,0) + v(1,2,0) - u(1,2,0) <= 33
MCLin4(1,2,0):  33 y(2,1,0) - u(1,2,0) >= -0
MCLin5(1,2,0):  -33 y(2,1,0) + v(1,2,0) - u(1,2,0) >= -33
MCLin6(2,1,0):  u(2,1,0) >= -0
MCLin7(2,1,0):  -46 y(1,2,0) - u(2,1,0) <= -0
MCLin8(2,1,0):  20 y(1,2,0) + v(2,1,0) - u(2,1,0) <= 20
MCLin9(2,1,0):  20 y(1,2,0) - u(2,1,0) >= -0
MCLin10(2,1,0):  -46 y(1,2,0) + v(2,1,0) - u(2,1,0) >= -46
MCLinV(1,2,1):  x(1,1) - v(1,2,1) - x(2,1) = 9
MCLinV(2,1,1):  - x(1,1) - v(2,1,1) + x(2,1) = 9
MCLin1(1,2,1):  u(1,2,1) >= -0
MCLin2(1,2,1):  -53 y(2,1,1) - u(1,2,1) <= -0
MCLin3(1,2,1):  13 y(2,1,1) + v(1,2,1) - u(1,2,1) <= 13
MCLin4(1,2,1):  13 y(2,1,1) - u(1,2,1) >= -0
MCLin5(1,2,1):  -53 y(2,1,1) + v(1,2,1) - u(1,2,1) >= -53
MCLin6(2,1,1):  u(2,1,1) >= -0
MCLin7(2,1,1):  -31 y(1,2,1) - u(2,1,1) <= -0
MCLin8(2,1,1):  35 y(1,2,1) + v(2,1,1) - u(2,1,1) <= 35
MCLin9(2,1,1):  35 y(1,2,1) - u(2,1,1) >= -0
MCLin10(2,1,1):  -31 y(1,2,1) + v(2,1,1) - u(2,1,1) >= -31
MCLinV(1,2,2):  x(1,2) - v(1,2,2) - x(2,2) = 2
MCLinV(2,1,2):  - x(1,2) - v(2,1,2) + x(2,2) = 7
MCLin1(1,2,2):  u(1,2,2) >= -0
MCLin2(1,2,2):  -29 y(2,1,2) - u(1,2,2) <= -0
MCLin3(1,2,2):  37 y(2,1,2) + v(1,2,2) - u(1,2,2) <= 37
MCLin4(1,2,2):  37 y(2,1,2) - u(1,2,2) >= -0
MCLin5(1,2,2):  -29 y(2,1,2) + v(1,2,2) - u(1,2,2) >= -29
MCLin6(2,1,2):  u(2,1,2) >= -0
MCLin7(2,1,2):  -46 y(1,2,2) - u(2,1,2) <= -0
MCLin8(2,1,2):  20 y(1,2,2) + v(2,1,2) - u(2,1,2) <= 20
MCLin9(2,1,2):  20 y(1,2,2) - u(2,1,2) >= -0
MCLin10(2,1,2):  -46 y(1,2,2) + v(2,1,2) - u(2,1,2) >= -46
makespan(0):  C - x(0,2) >= 10
makespan(1):  C - x(1,2) >= 7
makespan(2):  C - x(2,1) >= 9
cut_clique_0(012,1):  0.11111 x(0,1) + x(1,1) >= 1
cut_clique_0(012,2):  0.01076 x(0,2) + 0.03498 x(1,2) + 0.03408 x(2,2) >= 1
cut_clique_0:  0.26855 x(1,1) + 0.01413 x(0,2) + 0.04594 x(1,2) >= 1
cut_clique_1:  0.04947 x(2,0) + 0.12014 x(1,1) + 0.01413 x(0,2) + 0.04594 x(1,2) >= 1
cut_clique_2:  0.06002 x(1,0) + 0.00500 x(2,0) + 0.16935 x(1,1) + 0.01286 x(0,2) + 0.01179 x(1,2) >= 1
Bounds
 0 <= C <= 53
 1 <= x(0,0) <= 41
 0 <= y(0,1,0) <= 1
 0 <= y(1,0,0) <= 1
 -45 <= v(0,1,0) <= 26
 -34 <= v(1,0,0) <= 37
 -530 <= u(0,1,0)
 -530 <= u(1,0,0)
 0 <= y(0,2,0) <= 1
 0 <= y(2,0,0) <= 1
 -41 <= v(0,2,0) <= 34
 -43 <= v(2,0,0) <= 32
 -530 <= u(0,2,0)
 -530 <= u(2,0,0)
 9 <= x(1,0) <= 40
 0 <= y(1,2,0) <= 1
 0 <= y(2,1,0) <= 1
 -33 <= v(1,2,0) <= 33
 -46 <= v(2,1,0) <= 20
 -530 <= u(1,2,0)
 -530 <= u(2,1,0)
 0 <= x(2,0) <= 35
 0 <= x(0,1) <= 40
 0 <= y(0,1,1) <= 1
 0 <= y(1,0,1) <= 1
 -40 <= v(0,1,1) <= 31
 -41 <= v(1,0,1) <= 30
 -530 <= u(0,1,1)
 -530 <= u(1,0,1)
 0 <= y(0,2,1) <= 1
 0 <= y(2,0,1) <= 1
 -53 <= v(0,2,1) <= 22
 -32 <= v(2,0,1) <= 43
 -530 <= u(0,2,1)
 -530 <= u(2,0,1)
 0 <= x(1,1) <= 31
 0 <= y(1,2,1) <= 1
 0 <= y(2,1,1) <= 1
 -53 <= v(1,2,1) <= 13
 -31 <= v(2,1,1) <= 35
 -530 <= u(1,2,1)
 -530 <= u(2,1,1)
 9 <= x(2,1) <= 44
 3 <= x(0,2) <= 43
 0 <= y(0,1,2) <= 1
 0 <= y(1,0,2) <= 1
 -50 <= v(0,1,2) <= 21
 -38 <= v(1,0,2) <= 33
 -530 <= u(0,1,2)
 -530 <= u(1,0,2)
 0 <= y(0,2,2) <= 1
 0 <= y(2,0,2) <= 1
 -41 <= v(0,2,2) <= 34
 -46 <= v(2,0,2) <= 29
 -530 <= u(0,2,2)
 -530 <= u(2,0,2)
 15 <= x(1,2) <= 46
 0 <= y(1,2,2) <= 1
 0 <= y(2,1,2) <= 1
 -29 <= v(1,2,2) <= 37
 -46 <= v(2,1,2) <= 20
 -530 <= u(1,2,2)
 -530 <= u(2,1,2)
 7 <= x(2,2) <= 42
Integers
C x(0,0) y(0,1,0) y(1,0,0) v(0,1,0) v(1,0,0) u(0,1,0) u(1,0,0) y(0,2,0) y(2,0,0) 
v(0,2,0) v(2,0,0) u(0,2,0) u(2,0,0) x(1,0) y(1,2,0) y(2,1,0) v(1,2,0) v(2,1,0) u(1,2,0) 
u(2,1,0) x(2,0) x(0,1) y(0,1,1) y(1,0,1) v(0,1,1) v(1,0,1) u(0,1,1) u(1,0,1) y(0,2,1) 
y(2,0,1) v(0,2,1) v(2,0,1) u(0,2,1) u(2,0,1) x(1,1) y(1,2,1) y(2,1,1) v(1,2,1) v(2,1,1) 
u(1,2,1) u(2,1,1) x(2,1) x(0,2) y(0,1,2) y(1,0,2) v(0,1,2) v(1,0,2) u(0,1,2) u(1,0,2) 
y(0,2,2) y(2,0,2) v(0,2,2) v(2,0,2) u(0,2,2) u(2,0,2) x(1,2) y(1,2,2) y(2,1,2) v(1,2,2) 
v(2,1,2) u(1,2,2) u(2,1,2) x(2,2) 
End
